% File represents an instance of a Composite Structure problem to be solved by a CP framework
% Created on 2025-03-26 10:41:16.642
T = 52;
n = 9;
m = 12;
edges = [(1, 2),
(4, 5),
(8, 7),
(2, 3),
(6, 5),
(9, 8),
(4, 1),
(4, 7),
(5, 2),
(8, 5),
(6, 3),
(9, 6)];
counts = [|14, 14, 14, 2,
|14, 12, 14, 2,
|14, 10, 14, 2,
|14, 16, 14, 6,
|14, 14, 14, 2,
|14, 16, 14, 2,
|14, 14, 14, 4,
|14, 14, 14, 8,
|14, 16, 14, 8|];
